p edge 26 130
e 1 3
e 1 4
e 1 10
e 1 19
e 1 24
e 2 9
e 2 10
e 2 13
e 2 15
e 2 18
e 3 6
e 3 18
e 3 19
e 3 23
e 3 24
e 4 2
e 4 7
e 4 10
e 4 19
e 4 25
e 5 2
e 5 4
e 5 6
e 5 12
e 5 21
e 6 1
e 6 3
e 6 3
e 6 18
e 6 19
e 7 2
e 7 2
e 7 5
e 7 14
e 7 25
e 8 3
e 8 4
e 8 7
e 8 15
e 8 25
e 9 7
e 9 16
e 9 18
e 9 24
e 9 24
e 10 11
e 10 12
e 10 15
e 10 18
e 10 24
e 11 5
e 11 12
e 11 12
e 11 14
e 11 16
e 12 1
e 12 13
e 12 14
e 12 16
e 12 16
e 13 6
e 13 11
e 13 17
e 13 23
e 13 23
e 14 8
e 14 11
e 14 13
e 14 15
e 14 16
e 15 3
e 15 8
e 15 13
e 15 17
e 15 26
e 16 11
e 16 14
e 16 14
e 16 20
e 16 23
e 17 5
e 17 8
e 17 12
e 17 21
e 17 23
e 18 7
e 18 13
e 18 17
e 18 19
e 18 25
e 19 2
e 19 2
e 19 5
e 19 17
e 19 21
e 20 3
e 20 6
e 20 10
e 20 10
e 20 12
e 21 9
e 21 19
e 21 22
e 21 22
e 21 23
e 22 1
e 22 4
e 22 11
e 22 13
e 22 17
e 23 2
e 23 4
e 23 9
e 23 20
e 23 24
e 24 8
e 24 13
e 24 18
e 24 20
e 24 22
e 25 2
e 25 10
e 25 11
e 25 12
e 25 18
e 26 14
e 26 16
e 26 17
e 26 19
e 26 20
